c SAT problem instance from hardware verification pipeline
c Generated from circuit equivalence checking task
c Testing combinational logic block with state encoding
c Original circuit: 8-bit ALU with control logic
c Property: output equivalence under input constraints
c Variables represent circuit signals and intermediate nodes
c Clauses encode circuit structure and property negation
c Expected: moderately difficult instance showing phase sensitivity
p cnf 120 380
1 2 -3 0
-1 -2 -3 0
1 -2 3 0
-1 2 3 0
4 5 -6 0
-4 -5 -6 0
4 -5 6 0
-4 5 6 0
7 8 -9 0
-7 -8 -9 0
7 -8 9 0
-7 8 9 0
10 11 -12 0
-10 -11 -12 0
10 -11 12 0
-10 11 12 0
3 6 -13 0
-3 -6 -13 0
3 -6 13 0
-3 6 13 0
9 12 -14 0
-9 -12 -14 0
9 -12 14 0
-9 12 14 0
13 14 -15 0
-13 -14 -15 0
13 -14 15 0
-13 14 15 0
16 17 -18 0
-16 -17 -18 0
16 -17 18 0
-16 17 18 0
19 20 -21 0
-19 -20 -21 0
19 -20 21 0
-19 20 21 0
22 23 -24 0
-22 -23 -24 0
22 -23 24 0
-22 23 24 0
18 21 -25 0
-18 -21 -25 0
18 -21 25 0
-18 21 25 0
24 25 -26 0
-24 -25 -26 0
24 -25 26 0
-24 25 26 0
15 26 -27 0
-15 -26 -27 0
15 -26 27 0
-15 26 27 0
28 29 -30 0
-28 -29 -30 0
28 -29 30 0
-28 29 30 0
31 32 -33 0
-31 -32 -33 0
31 -32 33 0
-31 32 33 0
34 35 -36 0
-34 -35 -36 0
34 -35 36 0
-34 35 36 0
30 33 -37 0
-30 -33 -37 0
30 -33 37 0
-30 33 37 0
36 37 -38 0
-36 -37 -38 0
36 -37 38 0
-36 37 38 0
27 38 -39 0
-27 -38 -39 0
27 -38 39 0
-27 38 39 0
40 41 -42 0
-40 -41 -42 0
40 -41 42 0
-40 41 42 0
43 44 -45 0
-43 -44 -45 0
43 -44 45 0
-43 44 45 0
46 47 -48 0
-46 -47 -48 0
46 -47 48 0
-46 47 48 0
42 45 -49 0
-42 -45 -49 0
42 -45 49 0
-42 45 49 0
48 49 -50 0
-48 -49 -50 0
48 -49 50 0
-48 49 50 0
39 50 -51 0
-39 -50 -51 0
39 -50 51 0
-39 50 51 0
52 53 -54 0
-52 -53 -54 0
52 -53 54 0
-52 53 54 0
55 56 -57 0
-55 -56 -57 0
55 -56 57 0
-55 56 57 0
58 59 -60 0
-58 -59 -60 0
58 -59 60 0
-58 59 60 0
54 57 -61 0
-54 -57 -61 0
54 -57 61 0
-54 57 61 0
60 61 -62 0
-60 -61 -62 0
60 -61 62 0
-60 61 62 0
51 62 -63 0
-51 -62 -63 0
51 -62 63 0
-51 62 63 0
64 65 -66 0
-64 -65 -66 0
64 -65 66 0
-64 65 66 0
67 68 -69 0
-67 -68 -69 0
67 -68 69 0
-67 68 69 0
70 71 -72 0
-70 -71 -72 0
70 -71 72 0
-70 71 72 0
66 69 -73 0
-66 -69 -73 0
66 -69 73 0
-66 69 73 0
72 73 -74 0
-72 -73 -74 0
72 -73 74 0
-72 73 74 0
63 74 -75 0
-63 -74 -75 0
63 -74 75 0
-63 74 75 0
1 4 7 0
-1 -4 -7 0
10 16 19 0
-10 -16 -19 0
22 28 31 0
-22 -28 -31 0
34 40 43 0
-34 -40 -43 0
46 52 55 0
-46 -52 -55 0
58 64 67 0
-58 -64 -67 0
70 75 -76 0
-70 -75 -76 0
76 77 -78 0
-76 -77 -78 0
76 -77 78 0
-76 77 78 0
79 80 -81 0
-79 -80 -81 0
79 -80 81 0
-79 80 81 0
82 83 -84 0
-82 -83 -84 0
82 -83 84 0
-82 83 84 0
78 81 -85 0
-78 -81 -85 0
78 -81 85 0
-78 81 85 0
84 85 -86 0
-84 -85 -86 0
84 -85 86 0
-84 85 86 0
86 87 -88 0
-86 -87 -88 0
86 -87 88 0
-86 87 88 0
88 89 -90 0
-88 -89 -90 0
88 -89 90 0
-88 89 90 0
90 91 -92 0
-90 -91 -92 0
90 -91 92 0
-90 91 92 0
92 93 -94 0
-92 -93 -94 0
92 -93 94 0
-92 93 94 0
94 95 -96 0
-94 -95 -96 0
94 -95 96 0
-94 95 96 0
96 97 -98 0
-96 -97 -98 0
96 -97 98 0
-96 97 98 0
98 99 -100 0
-98 -99 -100 0
98 -99 100 0
-98 99 100 0
100 101 -102 0
-100 -101 -102 0
100 -101 102 0
-100 101 102 0
102 103 -104 0
-102 -103 -104 0
102 -103 104 0
-102 103 104 0
104 105 -106 0
-104 -105 -106 0
104 -105 106 0
-104 105 106 0
106 107 -108 0
-106 -107 -108 0
106 -107 108 0
-106 107 108 0
2 5 8 0
11 17 20 0
23 29 32 0
35 41 44 0
47 53 56 0
59 65 68 0
71 77 80 0
83 87 89 0
91 93 95 0
97 99 101 0
103 105 107 0
-2 -5 -8 0
-11 -17 -20 0
-23 -29 -32 0
-35 -41 -44 0
-47 -53 -56 0
-59 -65 -68 0
-71 -77 -80 0
-83 -87 -89 0
-91 -93 -95 0
-97 -99 -101 0
-103 -105 -107 0
108 109 -110 0
-108 -109 -110 0
108 -109 110 0
-108 109 110 0
110 111 -112 0
-110 -111 -112 0
110 -111 112 0
-110 111 112 0
112 113 -114 0
-112 -113 -114 0
112 -113 114 0
-112 113 114 0
114 115 -116 0
-114 -115 -116 0
114 -115 116 0
-114 115 116 0
116 117 -118 0
-116 -117 -118 0
116 -117 118 0
-116 117 118 0
118 119 -120 0
-118 -119 -120 0
118 -119 120 0
-118 119 120 0
1 10 22 0
4 16 28 0
7 19 31 0
34 46 58 0
40 52 64 0
43 55 67 0
-1 -10 -22 0
-4 -16 -28 0
-7 -19 -31 0
-34 -46 -58 0
-40 -52 -64 0
-43 -55 -67 0
70 79 82 0
-70 -79 -82 0
109 111 113 0
115 117 119 0
-109 -111 -113 0
-115 -117 -119 0
1 -10 22 0
-1 10 -22 0
4 -16 28 0
-4 16 -28 0
7 -19 31 0
-7 19 -31 0
34 -46 58 0
-34 46 -58 0
40 -52 64 0
-40 52 -64 0
43 -55 67 0
-43 55 -67 0
70 -79 82 0
-70 79 -82 0
15 -27 39 0
-15 27 -39 0
51 -63 75 0
-51 63 -75 0
76 -86 96 0
-76 86 -96 0
88 -100 112 0
-88 100 -112 0
3 -9 13 0
-3 9 -13 0
6 -12 14 0
-6 12 -14 0
18 -24 30 0
-18 24 -30 0
21 -33 42 0
-21 33 -42 0
25 -37 48 0
-25 37 -48 0
54 -60 66 0
-54 60 -66 0
57 -69 78 0
-57 69 -78 0
61 -73 84 0
-61 73 -84 0
2 -11 23 0
-2 11 -23 0
5 -17 29 0
-5 17 -29 0
8 -20 32 0
-8 20 -32 0
35 -47 59 0
-35 47 -59 0
41 -53 65 0
-41 53 -65 0
44 -56 68 0
-44 56 -68 0
71 -83 97 0
-71 83 -97 0
77 -87 103 0
-77 87 -103 0
80 -89 109 0
-80 89 -109 0
91 -99 115 0
-91 99 -115 0
93 -101 117 0
-93 101 -117 0
95 -105 119 0
-95 105 -119 0
1 2 3 4 5 0
-1 -2 -3 -4 -5 0
10 11 12 13 14 0
-10 -11 -12 -13 -14 0
22 23 24 25 26 0
-22 -23 -24 -25 -26 0
34 35 36 37 38 0
-34 -35 -36 -37 -38 0
46 47 48 49 50 0
-46 -47 -48 -49 -50 0
58 59 60 61 62 0
-58 -59 -60 -61 -62 0
70 71 72 73 74 0
-70 -71 -72 -73 -74 0
79 80 81 82 83 0
-79 -80 -81 -82 -83 0
91 92 93 94 95 0
-91 -92 -93 -94 -95 0
103 104 105 106 107 0
-103 -104 -105 -106 -107 0
109 110 111 112 113 0
-109 -110 -111 -112 -113 0
115 116 117 118 119 0
-115 -116 -117 -118 -119 0
15 26 39 51 63 0
-15 -26 -39 -51 -63 0
75 76 86 88 96 0
-75 -76 -86 -88 -96 0
100 108 112 114 120 0
-100 -108 -112 -114 -120 0
27 38 50 62 74 0
-27 -38 -50 -62 -74 0
6 18 30 42 54 0
-6 -18 -30 -42 -54 0
66 78 84 90 98 0
-66 -78 -84 -90 -98 0
9 21 33 45 57 0
-9 -21 -33 -45 -57 0
69 81 85 92 104 0
-69 -81 -85 -92 -104 0